; chc-comp19-benchmarks/./lra-ts/chc-lra-ts-0159_000.smt2
(set-logic HORN)

(declare-fun |invariant| ( Real Real Real Real Real Real Real Real Real Real Real Real Real Real Real Real Real Real Real Real Real Real Real Real Real Real Real Real Real Real Real Real Real Real Real Real Real Real Real Real Real Real Real Real Real Real Real Real Real Real Real Real Real Real Real Real Real Real Real Real Real Real Real Real Real Real Bool Bool Bool Bool Bool Bool Bool Bool Bool Bool Bool Bool Bool Bool Real Real Real Real Real Real ) Bool)

(assert
  (forall ( (A Real) (B Real) (C Real) (D Real) (E Real) (F Real) (G Real) (H Real) (I Real) (J Real) (K Real) (L Real) (M Real) (N Real) (O Real) (P Real) (Q Real) (R Real) (S Real) (T Real) (U Real) (V Real) (W Real) (X Real) (Y Real) (Z Real) (A1 Real) (B1 Real) (C1 Real) (D1 Real) (E1 Real) (F1 Real) (G1 Real) (H1 Real) (I1 Real) (J1 Real) (K1 Real) (L1 Real) (M1 Real) (N1 Real) (O1 Real) (P1 Real) (Q1 Real) (R1 Real) (S1 Real) (T1 Real) (U1 Real) (V1 Real) (W1 Real) (X1 Real) (Y1 Real) (Z1 Real) (A2 Real) (B2 Real) (C2 Real) (D2 Real) (E2 Real) (F2 Real) (G2 Real) (H2 Real) (I2 Real) (J2 Real) (K2 Real) (L2 Real) (M2 Real) (N2 Real) (O2 Real) (P2 Real) (Q2 Real) (R2 Bool) (S2 Bool) (T2 Bool) (U2 Bool) (V2 Bool) (W2 Bool) (X2 Bool) (Y2 Bool) (Z2 Bool) (A3 Bool) (B3 Bool) (C3 Bool) (D3 Bool) (E3 Bool) (F3 Real) (G3 Real) (H3 Real) ) 
    (=>
      (and
        (and (= O2 0.0)
     (= N2 0.0)
     (= M2 0.0)
     (= L2 0.0)
     (= K2 0.0)
     (= J2 0.0)
     (= I2 0.0)
     (= H2 0.0)
     (= G2 0.0)
     (= F2 0.0)
     (= E2 0.0)
     (= D2 0.0)
     (= C2 0.0)
     (= B2 0.0)
     (= A2 0.0)
     (= Z1 0.0)
     (= Y1 0.0)
     (= X1 0.0)
     (= W1 0.0)
     (= V1 0.0)
     (= U1 0.0)
     (= T1 0.0)
     (= S1 0.0)
     (= R1 0.0)
     (= Q1 0.0)
     (= P1 0.0)
     (= O1 0.0)
     (= N1 0.0)
     (= M1 0.0)
     (= L1 0.0)
     (= K1 0.0)
     (= J1 0.0)
     (= I1 0.0)
     (= H1 0.0)
     (= G1 0.0)
     (= F1 0.0)
     (= E1 0.0)
     (= D1 0.0)
     (= C1 0.0)
     (= B1 0.0)
     (= A1 0.0)
     (= Z 0.0)
     (= Y 0.0)
     (= X 0.0)
     (= W 0.0)
     (= V 0.0)
     (= U 0.0)
     (= T 0.0)
     (= S 0.0)
     (= R 0.0)
     (= Q 0.0)
     (= P 0.0)
     (= O 0.0)
     (= N 0.0)
     (= M 0.0)
     (= L 0.0)
     (= K 0.0)
     (= J 0.0)
     (= I 0.0)
     (= H 0.0)
     (= G 0.0)
     (= F 0.0)
     (= E 0.0)
     (= D 0.0)
     (= C 0.0)
     (= B 0.0)
     (= A 0.0)
     (or (and (not U2) V2 W2 X2 Y2 Z2 A3 B3 C3 D3 E3)
         (and U2 (not V2) W2 X2 Y2 Z2 A3 B3 C3 D3 E3)
         (and U2 V2 (not W2) X2 Y2 Z2 A3 B3 C3 D3 E3)
         (and U2 V2 W2 (not X2) Y2 Z2 A3 B3 C3 D3 E3)
         (and U2 V2 W2 X2 (not Y2) Z2 A3 B3 C3 D3 E3)
         (and U2 V2 W2 X2 Y2 (not Z2) A3 B3 C3 D3 E3)
         (and U2 V2 W2 X2 Y2 Z2 (not A3) B3 C3 D3 E3)
         (and U2 V2 W2 X2 Y2 Z2 A3 (not B3) C3 D3 E3)
         (and U2 V2 W2 X2 Y2 Z2 A3 B3 (not C3) D3 E3)
         (and U2 V2 W2 X2 Y2 Z2 A3 B3 C3 (not D3) E3)
         (and U2 V2 W2 X2 Y2 Z2 A3 B3 C3 D3 (not E3)))
     (or (= P2 1.0) (= P2 2.0) (= P2 3.0))
     (= T2 true)
     (= S2 true)
     (= R2 true)
     (not (= Q2 0.0)))
      )
      (invariant B
           C
           D
           E
           F
           G
           H
           I
           J
           K
           L
           M
           N
           O
           P
           Q
           R
           S
           T
           U
           V
           W
           X
           Y
           Z
           A1
           B1
           C1
           D1
           E1
           F1
           G1
           H1
           I1
           J1
           K1
           L1
           M1
           N1
           O1
           P1
           Q1
           R1
           S1
           T1
           U1
           V1
           W1
           X1
           Y1
           Z1
           A2
           B2
           C2
           D2
           E2
           F2
           G2
           H2
           I2
           J2
           K2
           L2
           M2
           N2
           O2
           R2
           S2
           T2
           U2
           V2
           W2
           X2
           Y2
           Z2
           A3
           B3
           C3
           D3
           E3
           F3
           G3
           H3
           A
           P2
           Q2)
    )
  )
)
(assert
  (forall ( (A Real) (B Real) (C Real) (D Real) (E Real) (F Real) (G Real) (H Real) (I Real) (J Real) (K Real) (L Real) (M Real) (N Real) (O Real) (P Real) (Q Real) (R Real) (S Real) (T Real) (U Real) (V Real) (W Real) (X Real) (Y Real) (Z Real) (A1 Real) (B1 Real) (C1 Real) (D1 Real) (E1 Real) (F1 Real) (G1 Real) (H1 Real) (I1 Real) (J1 Real) (K1 Real) (L1 Real) (M1 Real) (N1 Real) (O1 Real) (P1 Real) (Q1 Real) (R1 Real) (S1 Real) (T1 Real) (U1 Real) (V1 Real) (W1 Real) (X1 Real) (Y1 Real) (Z1 Real) (A2 Real) (B2 Real) (C2 Real) (D2 Real) (E2 Real) (F2 Real) (G2 Real) (H2 Real) (I2 Real) (J2 Real) (K2 Real) (L2 Real) (M2 Real) (N2 Real) (O2 Bool) (P2 Bool) (Q2 Bool) (R2 Bool) (S2 Bool) (T2 Bool) (U2 Bool) (V2 Bool) (W2 Bool) (X2 Bool) (Y2 Bool) (Z2 Bool) (A3 Bool) (B3 Bool) (C3 Real) (D3 Real) (E3 Real) (F3 Real) (G3 Real) (H3 Real) (I3 Real) (J3 Real) (K3 Real) (L3 Real) (M3 Real) (N3 Real) (O3 Real) (P3 Real) (Q3 Real) (R3 Real) (S3 Real) (T3 Real) (U3 Real) (V3 Real) (W3 Real) (X3 Real) (Y3 Real) (Z3 Real) (A4 Real) (B4 Real) (C4 Real) (D4 Real) (E4 Real) (F4 Real) (G4 Real) (H4 Real) (I4 Real) (J4 Real) (K4 Real) (L4 Real) (M4 Real) (N4 Real) (O4 Real) (P4 Real) (Q4 Real) (R4 Real) (S4 Real) (T4 Real) (U4 Real) (V4 Real) (W4 Real) (X4 Real) (Y4 Real) (Z4 Real) (A5 Real) (B5 Real) (C5 Real) (D5 Real) (E5 Real) (F5 Real) (G5 Real) (H5 Real) (I5 Real) (J5 Real) (K5 Real) (L5 Real) (M5 Real) (N5 Real) (O5 Real) (P5 Real) (Q5 Real) (R5 Real) (S5 Real) (T5 Real) (U5 Real) (V5 Real) (W5 Real) (X5 Real) (Y5 Real) (Z5 Bool) (A6 Bool) (B6 Bool) (C6 Bool) (D6 Bool) (E6 Bool) (F6 Bool) (G6 Bool) (H6 Bool) (I6 Bool) (J6 Bool) (K6 Bool) (L6 Bool) (M6 Bool) (N6 Real) (O6 Real) (P6 Real) ) 
    (=>
      (and
        (invariant A
           B
           C
           D
           E
           F
           G
           H
           I
           J
           K
           L
           M
           N
           O
           P
           Q
           R
           S
           T
           U
           V
           W
           X
           Y
           Z
           A1
           B1
           C1
           D1
           E1
           F1
           G1
           H1
           I1
           J1
           K1
           L1
           M1
           N1
           O1
           P1
           Q1
           R1
           S1
           T1
           U1
           V1
           W1
           X1
           Y1
           Z1
           A2
           B2
           C2
           D2
           E2
           F2
           G2
           H2
           I2
           J2
           K2
           L2
           M2
           N2
           O2
           P2
           Q2
           R2
           S2
           T2
           U2
           V2
           W2
           X2
           Y2
           Z2
           A3
           B3
           C3
           D3
           E3
           F3
           G3
           H3)
        (let ((a!1 (and (or (not O2)
                    (and (= K3 H3)
                         (= L3 H3)
                         (= M3 H3)
                         (= N3 H3)
                         (= O3 H3)
                         (= P3 H3)
                         (= Q3 H3)
                         (= R3 H3)
                         (= S3 H3)
                         (= T3 H3)
                         (= U3 H3))
                    (not (= 1.0 G3)))
                (or (not O2)
                    (and (= K3 0.0)
                         (= L3 0.0)
                         (= M3 0.0)
                         (= N3 0.0)
                         (= O3 0.0)
                         (= P3 0.0)
                         (= Q3 0.0)
                         (= R3 0.0)
                         (= S3 0.0)
                         (= T3 0.0)
                         (= U3 0.0))
                    (= 1.0 G3))
                (or (not P2)
                    (and (= V3 H3)
                         (= W3 H3)
                         (= X3 H3)
                         (= Y3 H3)
                         (= Z3 H3)
                         (= A4 H3)
                         (= B4 H3)
                         (= C4 H3)
                         (= D4 H3)
                         (= E4 H3)
                         (= F4 H3))
                    (not (= 2.0 G3)))
                (or (not P2)
                    (and (= V3 0.0)
                         (= W3 0.0)
                         (= X3 0.0)
                         (= Y3 0.0)
                         (= Z3 0.0)
                         (= A4 0.0)
                         (= B4 0.0)
                         (= C4 0.0)
                         (= D4 0.0)
                         (= E4 0.0)
                         (= F4 0.0))
                    (= 2.0 G3))
                (or (not Q2)
                    (and (= G4 H3)
                         (= H4 H3)
                         (= I4 H3)
                         (= J4 H3)
                         (= K4 H3)
                         (= L4 H3)
                         (= M4 H3)
                         (= N4 H3)
                         (= O4 H3)
                         (= P4 H3)
                         (= Q4 H3))
                    (not (= 3.0 G3)))
                (or (not Q2)
                    (and (= G4 0.0)
                         (= H4 0.0)
                         (= I4 0.0)
                         (= J4 0.0)
                         (= K4 0.0)
                         (= L4 0.0)
                         (= M4 0.0)
                         (= N4 0.0)
                         (= O4 0.0)
                         (= P4 0.0)
                         (= Q4 0.0))
                    (= 3.0 G3))
                (= R4 1.0)
                (= S4 H1)
                (= T4 I1)
                (= U4 J1)
                (= V4 K1)
                (= W4 L1)
                (= X4 M1)
                (= Y4 N1)
                (= Z4 O1)
                (= A5 P1)
                (= B5 Q1)
                (= C5 R1)
                (= D5 S1)
                (= E5 T1)
                (= F5 U1)
                (= G5 V1)
                (= H5 W1)
                (= I5 X1)
                (= J5 Y1)
                (= K5 Z1)
                (= L5 A2)
                (= M5 B2)
                (= N5 C2)
                (= O5 D2)
                (= P5 E2)
                (= Q5 F2)
                (= R5 G2)
                (= S5 H2)
                (= T5 I2)
                (= U5 J2)
                (= V5 K2)
                (= W5 L2)
                (= X5 M2)
                (= Y5 N2)
                (= N6 C3)
                (= O6 D3)
                (= P6 E3)
                (= F3 0.0)
                (= Z5 O2)
                (= A6 P2)
                (= B6 Q2)
                (= C6 R2)
                (= D6 S2)
                (= E6 T2)
                (= F6 U2)
                (= G6 V2)
                (= H6 W2)
                (= I6 X2)
                (= J6 Y2)
                (= K6 Z2)
                (= L6 A3)
                (= M6 B3)))
      (a!2 (ite (= P1 R1)
                (+ 1 (ite (= Q1 R1) 2 0))
                (+ (- 1) (ite (= Q1 R1) 2 0))))
      (a!30 (ite (= A2 C2)
                 (+ 1 (ite (= B2 C2) 2 0))
                 (+ (- 1) (ite (= B2 C2) 2 0))))
      (a!58 (ite (= L2 N2)
                 (+ 1 (ite (= M2 N2) 2 0))
                 (+ (- 1) (ite (= M2 N2) 2 0))))
      (a!86 (ite (= G3 3.0) W (ite (= G3 2.0) L A)))
      (a!87 (ite (= G3 3.0) X (ite (= G3 2.0) M B)))
      (a!88 (ite (= G3 3.0) Y (ite (= G3 2.0) N C)))
      (a!89 (ite (= G3 3.0) Z (ite (= G3 2.0) O D)))
      (a!90 (ite (= G3 3.0) A1 (ite (= G3 2.0) P E)))
      (a!91 (ite (= G3 3.0) B1 (ite (= G3 2.0) Q F)))
      (a!92 (ite (= G3 3.0) C1 (ite (= G3 2.0) R G)))
      (a!93 (ite (= G3 3.0) D1 (ite (= G3 2.0) S H)))
      (a!94 (ite (= G3 3.0) E1 (ite (= G3 2.0) T I)))
      (a!95 (ite (= G3 3.0) F1 (ite (= G3 2.0) U J)))
      (a!96 (ite (= G3 3.0) G1 (ite (= G3 2.0) V K))))
(let ((a!3 (ite (= O1 (ite (= Q1 R1) R1 P1))
                (+ 1 (ite (= Q1 R1) a!2 1))
                (+ (- 1) (ite (= Q1 R1) a!2 1))))
      (a!5 (ite (= (ite (= Q1 R1) a!2 1) 0) O1 (ite (= Q1 R1) R1 P1)))
      (a!31 (ite (= Z1 (ite (= B2 C2) C2 A2))
                 (+ 1 (ite (= B2 C2) a!30 1))
                 (+ (- 1) (ite (= B2 C2) a!30 1))))
      (a!33 (ite (= (ite (= B2 C2) a!30 1) 0) Z1 (ite (= B2 C2) C2 A2)))
      (a!59 (ite (= K2 (ite (= M2 N2) N2 L2))
                 (+ 1 (ite (= M2 N2) a!58 1))
                 (+ (- 1) (ite (= M2 N2) a!58 1))))
      (a!61 (ite (= (ite (= M2 N2) a!58 1) 0) K2 (ite (= M2 N2) N2 L2))))
(let ((a!4 (ite (= (ite (= Q1 R1) a!2 1) 0) 1 a!3))
      (a!32 (ite (= (ite (= B2 C2) a!30 1) 0) 1 a!31))
      (a!60 (ite (= (ite (= M2 N2) a!58 1) 0) 1 a!59)))
(let ((a!6 (ite (= a!4 0) 1 (ite (= N1 a!5) (+ 1 a!4) (+ (- 1) a!4))))
      (a!34 (ite (= a!32 0) 1 (ite (= Y1 a!33) (+ 1 a!32) (+ (- 1) a!32))))
      (a!62 (ite (= a!60 0) 1 (ite (= J2 a!61) (+ 1 a!60) (+ (- 1) a!60)))))
(let ((a!7 (ite (= M1 (ite (= a!4 0) N1 a!5)) (+ 1 a!6) (+ (- 1) a!6)))
      (a!8 (ite (= a!6 0) M1 (ite (= a!4 0) N1 a!5)))
      (a!35 (ite (= X1 (ite (= a!32 0) Y1 a!33)) (+ 1 a!34) (+ (- 1) a!34)))
      (a!36 (ite (= a!34 0) X1 (ite (= a!32 0) Y1 a!33)))
      (a!63 (ite (= I2 (ite (= a!60 0) J2 a!61)) (+ 1 a!62) (+ (- 1) a!62)))
      (a!64 (ite (= a!62 0) I2 (ite (= a!60 0) J2 a!61))))
(let ((a!9 (ite (= L1 a!8)
                (+ 1 (ite (= a!6 0) 1 a!7))
                (+ (- 1) (ite (= a!6 0) 1 a!7))))
      (a!11 (ite (= (ite (= a!6 0) 1 a!7) 0) L1 a!8))
      (a!37 (ite (= W1 a!36)
                 (+ 1 (ite (= a!34 0) 1 a!35))
                 (+ (- 1) (ite (= a!34 0) 1 a!35))))
      (a!39 (ite (= (ite (= a!34 0) 1 a!35) 0) W1 a!36))
      (a!65 (ite (= H2 a!64)
                 (+ 1 (ite (= a!62 0) 1 a!63))
                 (+ (- 1) (ite (= a!62 0) 1 a!63))))
      (a!67 (ite (= (ite (= a!62 0) 1 a!63) 0) H2 a!64)))
(let ((a!10 (ite (= (ite (= a!6 0) 1 a!7) 0) 1 a!9))
      (a!38 (ite (= (ite (= a!34 0) 1 a!35) 0) 1 a!37))
      (a!66 (ite (= (ite (= a!62 0) 1 a!63) 0) 1 a!65)))
(let ((a!12 (ite (= a!10 0) 1 (ite (= K1 a!11) (+ 1 a!10) (+ (- 1) a!10))))
      (a!40 (ite (= a!38 0) 1 (ite (= V1 a!39) (+ 1 a!38) (+ (- 1) a!38))))
      (a!68 (ite (= a!66 0) 1 (ite (= G2 a!67) (+ 1 a!66) (+ (- 1) a!66)))))
(let ((a!13 (ite (= J1 (ite (= a!10 0) K1 a!11)) (+ 1 a!12) (+ (- 1) a!12)))
      (a!14 (ite (= a!12 0) J1 (ite (= a!10 0) K1 a!11)))
      (a!41 (ite (= U1 (ite (= a!38 0) V1 a!39)) (+ 1 a!40) (+ (- 1) a!40)))
      (a!42 (ite (= a!40 0) U1 (ite (= a!38 0) V1 a!39)))
      (a!69 (ite (= F2 (ite (= a!66 0) G2 a!67)) (+ 1 a!68) (+ (- 1) a!68)))
      (a!70 (ite (= a!68 0) F2 (ite (= a!66 0) G2 a!67))))
(let ((a!15 (ite (= I1 a!14)
                 (+ 1 (ite (= a!12 0) 1 a!13))
                 (+ (- 1) (ite (= a!12 0) 1 a!13))))
      (a!17 (ite (= (ite (= a!12 0) 1 a!13) 0) I1 a!14))
      (a!43 (ite (= T1 a!42)
                 (+ 1 (ite (= a!40 0) 1 a!41))
                 (+ (- 1) (ite (= a!40 0) 1 a!41))))
      (a!45 (ite (= (ite (= a!40 0) 1 a!41) 0) T1 a!42))
      (a!71 (ite (= E2 a!70)
                 (+ 1 (ite (= a!68 0) 1 a!69))
                 (+ (- 1) (ite (= a!68 0) 1 a!69))))
      (a!73 (ite (= (ite (= a!68 0) 1 a!69) 0) E2 a!70)))
(let ((a!16 (ite (= (ite (= a!12 0) 1 a!13) 0) 1 a!15))
      (a!44 (ite (= (ite (= a!40 0) 1 a!41) 0) 1 a!43))
      (a!72 (ite (= (ite (= a!68 0) 1 a!69) 0) 1 a!71)))
(let ((a!18 (ite (= R1 (ite (= a!16 0) H1 a!17)) 5 6))
      (a!46 (ite (= C2 (ite (= a!44 0) S1 a!45)) 5 6))
      (a!74 (ite (= N2 (ite (= a!72 0) D2 a!73)) 5 6)))
(let ((a!19 (ite (= Q1 (ite (= a!16 0) H1 a!17)) (+ (- 1) a!18) a!18))
      (a!47 (ite (= B2 (ite (= a!44 0) S1 a!45)) (+ (- 1) a!46) a!46))
      (a!75 (ite (= M2 (ite (= a!72 0) D2 a!73)) (+ (- 1) a!74) a!74)))
(let ((a!20 (ite (= P1 (ite (= a!16 0) H1 a!17)) (+ (- 1) a!19) a!19))
      (a!48 (ite (= A2 (ite (= a!44 0) S1 a!45)) (+ (- 1) a!47) a!47))
      (a!76 (ite (= L2 (ite (= a!72 0) D2 a!73)) (+ (- 1) a!75) a!75)))
(let ((a!21 (ite (= O1 (ite (= a!16 0) H1 a!17)) (+ (- 1) a!20) a!20))
      (a!49 (ite (= Z1 (ite (= a!44 0) S1 a!45)) (+ (- 1) a!48) a!48))
      (a!77 (ite (= K2 (ite (= a!72 0) D2 a!73)) (+ (- 1) a!76) a!76)))
(let ((a!22 (ite (= N1 (ite (= a!16 0) H1 a!17)) (+ (- 1) a!21) a!21))
      (a!50 (ite (= Y1 (ite (= a!44 0) S1 a!45)) (+ (- 1) a!49) a!49))
      (a!78 (ite (= J2 (ite (= a!72 0) D2 a!73)) (+ (- 1) a!77) a!77)))
(let ((a!23 (ite (= M1 (ite (= a!16 0) H1 a!17)) (+ (- 1) a!22) a!22))
      (a!51 (ite (= X1 (ite (= a!44 0) S1 a!45)) (+ (- 1) a!50) a!50))
      (a!79 (ite (= I2 (ite (= a!72 0) D2 a!73)) (+ (- 1) a!78) a!78)))
(let ((a!24 (ite (= L1 (ite (= a!16 0) H1 a!17)) (+ (- 1) a!23) a!23))
      (a!52 (ite (= W1 (ite (= a!44 0) S1 a!45)) (+ (- 1) a!51) a!51))
      (a!80 (ite (= H2 (ite (= a!72 0) D2 a!73)) (+ (- 1) a!79) a!79)))
(let ((a!25 (ite (= K1 (ite (= a!16 0) H1 a!17)) (+ (- 1) a!24) a!24))
      (a!53 (ite (= V1 (ite (= a!44 0) S1 a!45)) (+ (- 1) a!52) a!52))
      (a!81 (ite (= G2 (ite (= a!72 0) D2 a!73)) (+ (- 1) a!80) a!80)))
(let ((a!26 (ite (= J1 (ite (= a!16 0) H1 a!17)) (+ (- 1) a!25) a!25))
      (a!54 (ite (= U1 (ite (= a!44 0) S1 a!45)) (+ (- 1) a!53) a!53))
      (a!82 (ite (= F2 (ite (= a!72 0) D2 a!73)) (+ (- 1) a!81) a!81)))
(let ((a!27 (ite (= I1 (ite (= a!16 0) H1 a!17)) (+ (- 1) a!26) a!26))
      (a!55 (ite (= T1 (ite (= a!44 0) S1 a!45)) (+ (- 1) a!54) a!54))
      (a!83 (ite (= E2 (ite (= a!72 0) D2 a!73)) (+ (- 1) a!82) a!82)))
(let ((a!28 (ite (= H1 (ite (= a!16 0) H1 a!17)) (+ (- 1) a!27) a!27))
      (a!56 (ite (= S1 (ite (= a!44 0) S1 a!45)) (+ (- 1) a!55) a!55))
      (a!84 (ite (= D2 (ite (= a!72 0) D2 a!73)) (+ (- 1) a!83) a!83)))
(let ((a!29 (= N6
               (ite (or (= a!28 0)
                        (= a!27 0)
                        (= a!26 0)
                        (= a!25 0)
                        (= a!24 0)
                        (= a!23 0)
                        (= a!22 0)
                        (= a!21 0)
                        (= a!20 0))
                    (ite (= a!16 0) H1 a!17)
                    0.0)))
      (a!57 (= O6
               (ite (or (= a!56 0)
                        (= a!55 0)
                        (= a!54 0)
                        (= a!53 0)
                        (= a!52 0)
                        (= a!51 0)
                        (= a!50 0)
                        (= a!49 0)
                        (= a!48 0))
                    (ite (= a!44 0) S1 a!45)
                    0.0)))
      (a!85 (= P6
               (ite (or (= a!84 0)
                        (= a!83 0)
                        (= a!82 0)
                        (= a!81 0)
                        (= a!80 0)
                        (= a!79 0)
                        (= a!78 0)
                        (= a!77 0)
                        (= a!76 0))
                    (ite (= a!72 0) D2 a!73)
                    0.0))))
(let ((a!97 (or a!1
                (and (or (not O2) a!29)
                     (or (not P2) a!57)
                     (or (not Q2) a!85)
                     (= K3 A)
                     (= L3 B)
                     (= M3 C)
                     (= N3 D)
                     (= O3 E)
                     (= P3 F)
                     (= Q3 G)
                     (= R3 H)
                     (= S3 I)
                     (= T3 J)
                     (= U3 K)
                     (= V3 L)
                     (= W3 M)
                     (= X3 N)
                     (= Y3 O)
                     (= Z3 P)
                     (= A4 Q)
                     (= B4 R)
                     (= C4 S)
                     (= D4 T)
                     (= E4 U)
                     (= F4 V)
                     (= G4 W)
                     (= H4 X)
                     (= I4 Y)
                     (= J4 Z)
                     (= K4 A1)
                     (= L4 B1)
                     (= M4 C1)
                     (= N4 D1)
                     (= O4 E1)
                     (= P4 F1)
                     (= Q4 G1)
                     (= R4 3.0)
                     (= S4 H1)
                     (= T4 I1)
                     (= U4 J1)
                     (= V4 K1)
                     (= W4 L1)
                     (= X4 M1)
                     (= Y4 N1)
                     (= Z4 O1)
                     (= A5 P1)
                     (= B5 Q1)
                     (= C5 R1)
                     (= D5 S1)
                     (= E5 T1)
                     (= F5 U1)
                     (= G5 V1)
                     (= H5 W1)
                     (= I5 X1)
                     (= J5 Y1)
                     (= K5 Z1)
                     (= L5 A2)
                     (= M5 B2)
                     (= N5 C2)
                     (= O5 D2)
                     (= P5 E2)
                     (= Q5 F2)
                     (= R5 G2)
                     (= S5 H2)
                     (= T5 I2)
                     (= U5 J2)
                     (= V5 K2)
                     (= W5 L2)
                     (= X5 M2)
                     (= Y5 N2)
                     (= F3 2.0)
                     (= Z5 O2)
                     (= A6 P2)
                     (= B6 Q2)
                     (= C6 R2)
                     (= D6 S2)
                     (= E6 T2)
                     (= F6 U2)
                     (= G6 V2)
                     (= H6 W2)
                     (= I6 X2)
                     (= J6 Y2)
                     (= K6 Z2)
                     (= L6 A3)
                     (= M6 B3))
                (and (or (not R2) (= S4 a!86))
                     (or (not R2) (= D5 a!86))
                     (or (not R2) (= O5 a!86))
                     (or (not S2) (= T4 a!87))
                     (or (not S2) (= E5 a!87))
                     (or (not S2) (= P5 a!87))
                     (or (not T2) (= U4 a!88))
                     (or (not T2) (= F5 a!88))
                     (or (not T2) (= Q5 a!88))
                     (or (not U2) (= V4 a!89))
                     (or (not U2) (= G5 a!89))
                     (or (not U2) (= R5 a!89))
                     (or (not V2) (= W4 a!90))
                     (or (not V2) (= H5 a!90))
                     (or (not V2) (= S5 a!90))
                     (or (not W2) (= X4 a!91))
                     (or (not W2) (= I5 a!91))
                     (or (not W2) (= T5 a!91))
                     (or (not X2) (= Y4 a!92))
                     (or (not X2) (= J5 a!92))
                     (or (not X2) (= U5 a!92))
                     (or (not Y2) (= Z4 a!93))
                     (or (not Y2) (= K5 a!93))
                     (or (not Y2) (= V5 a!93))
                     (or (not Z2) (= A5 a!94))
                     (or (not Z2) (= L5 a!94))
                     (or (not Z2) (= W5 a!94))
                     (or (not A3) (= B5 a!95))
                     (or (not A3) (= M5 a!95))
                     (or (not A3) (= X5 a!95))
                     (or (not B3) (= C5 a!96))
                     (or (not B3) (= N5 a!96))
                     (or (not B3) (= Y5 a!96))
                     (= K3 A)
                     (= L3 B)
                     (= M3 C)
                     (= N3 D)
                     (= O3 E)
                     (= P3 F)
                     (= Q3 G)
                     (= R3 H)
                     (= S3 I)
                     (= T3 J)
                     (= U3 K)
                     (= V3 L)
                     (= W3 M)
                     (= X3 N)
                     (= Y3 O)
                     (= Z3 P)
                     (= A4 Q)
                     (= B4 R)
                     (= C4 S)
                     (= D4 T)
                     (= E4 U)
                     (= F4 V)
                     (= G4 W)
                     (= H4 X)
                     (= I4 Y)
                     (= J4 Z)
                     (= K4 A1)
                     (= L4 B1)
                     (= M4 C1)
                     (= N4 D1)
                     (= O4 E1)
                     (= P4 F1)
                     (= Q4 G1)
                     (= R4 2.0)
                     (= N6 C3)
                     (= O6 D3)
                     (= P6 E3)
                     (= F3 1.0)
                     (= Z5 O2)
                     (= A6 P2)
                     (= B6 Q2)
                     (= C6 R2)
                     (= D6 S2)
                     (= E6 T2)
                     (= F6 U2)
                     (= G6 V2)
                     (= H6 W2)
                     (= I6 X2)
                     (= J6 Y2)
                     (= K6 Z2)
                     (= L6 A3)
                     (= M6 B3))
                (and (= K3 A)
                     (= L3 B)
                     (= M3 C)
                     (= N3 D)
                     (= O3 E)
                     (= P3 F)
                     (= Q3 G)
                     (= R3 H)
                     (= S3 I)
                     (= T3 J)
                     (= U3 K)
                     (= V3 L)
                     (= W3 M)
                     (= X3 N)
                     (= Y3 O)
                     (= Z3 P)
                     (= A4 Q)
                     (= B4 R)
                     (= C4 S)
                     (= D4 T)
                     (= E4 U)
                     (= F4 V)
                     (= G4 W)
                     (= H4 X)
                     (= I4 Y)
                     (= J4 Z)
                     (= K4 A1)
                     (= L4 B1)
                     (= M4 C1)
                     (= N4 D1)
                     (= O4 E1)
                     (= P4 F1)
                     (= Q4 G1)
                     (= R4 F3)
                     (= S4 H1)
                     (= T4 I1)
                     (= U4 J1)
                     (= V4 K1)
                     (= W4 L1)
                     (= X4 M1)
                     (= Y4 N1)
                     (= Z4 O1)
                     (= A5 P1)
                     (= B5 Q1)
                     (= C5 R1)
                     (= D5 S1)
                     (= E5 T1)
                     (= F5 U1)
                     (= G5 V1)
                     (= H5 W1)
                     (= I5 X1)
                     (= J5 Y1)
                     (= K5 Z1)
                     (= L5 A2)
                     (= M5 B2)
                     (= N5 C2)
                     (= O5 D2)
                     (= P5 E2)
                     (= Q5 F2)
                     (= R5 G2)
                     (= S5 H2)
                     (= T5 I2)
                     (= U5 J2)
                     (= V5 K2)
                     (= W5 L2)
                     (= X5 M2)
                     (= Y5 N2)
                     (= N6 C3)
                     (= O6 D3)
                     (= P6 E3)
                     (= F3 3.0)
                     (= Z5 O2)
                     (= A6 P2)
                     (= B6 Q2)
                     (= C6 R2)
                     (= D6 S2)
                     (= E6 T2)
                     (= F6 U2)
                     (= G6 V2)
                     (= H6 W2)
                     (= I6 X2)
                     (= J6 Y2)
                     (= K6 Z2)
                     (= L6 A3)
                     (= M6 B3)))))
  (and (= I3 G3) a!97 (= J3 H3))))))))))))))))))))))))))
      )
      (invariant K3
           L3
           M3
           N3
           O3
           P3
           Q3
           R3
           S3
           T3
           U3
           V3
           W3
           X3
           Y3
           Z3
           A4
           B4
           C4
           D4
           E4
           F4
           G4
           H4
           I4
           J4
           K4
           L4
           M4
           N4
           O4
           P4
           Q4
           S4
           T4
           U4
           V4
           W4
           X4
           Y4
           Z4
           A5
           B5
           C5
           D5
           E5
           F5
           G5
           H5
           I5
           J5
           K5
           L5
           M5
           N5
           O5
           P5
           Q5
           R5
           S5
           T5
           U5
           V5
           W5
           X5
           Y5
           Z5
           A6
           B6
           C6
           D6
           E6
           F6
           G6
           H6
           I6
           J6
           K6
           L6
           M6
           N6
           O6
           P6
           R4
           I3
           J3)
    )
  )
)
(assert
  (forall ( (A Real) (B Real) (C Real) (D Real) (E Real) (F Real) (G Real) (H Real) (I Real) (J Real) (K Real) (L Real) (M Real) (N Real) (O Real) (P Real) (Q Real) (R Real) (S Real) (T Real) (U Real) (V Real) (W Real) (X Real) (Y Real) (Z Real) (A1 Real) (B1 Real) (C1 Real) (D1 Real) (E1 Real) (F1 Real) (G1 Real) (H1 Real) (I1 Real) (J1 Real) (K1 Real) (L1 Real) (M1 Real) (N1 Real) (O1 Real) (P1 Real) (Q1 Real) (R1 Real) (S1 Real) (T1 Real) (U1 Real) (V1 Real) (W1 Real) (X1 Real) (Y1 Real) (Z1 Real) (A2 Real) (B2 Real) (C2 Real) (D2 Real) (E2 Real) (F2 Real) (G2 Real) (H2 Real) (I2 Real) (J2 Real) (K2 Real) (L2 Real) (M2 Real) (N2 Real) (O2 Bool) (P2 Bool) (Q2 Bool) (R2 Bool) (S2 Bool) (T2 Bool) (U2 Bool) (V2 Bool) (W2 Bool) (X2 Bool) (Y2 Bool) (Z2 Bool) (A3 Bool) (B3 Bool) (C3 Real) (D3 Real) (E3 Real) (F3 Real) (G3 Real) (H3 Real) ) 
    (=>
      (and
        (invariant A
           B
           C
           D
           E
           F
           G
           H
           I
           J
           K
           L
           M
           N
           O
           P
           Q
           R
           S
           T
           U
           V
           W
           X
           Y
           Z
           A1
           B1
           C1
           D1
           E1
           F1
           G1
           H1
           I1
           J1
           K1
           L1
           M1
           N1
           O1
           P1
           Q1
           R1
           S1
           T1
           U1
           V1
           W1
           X1
           Y1
           Z1
           A2
           B2
           C2
           D2
           E2
           F2
           G2
           H2
           I2
           J2
           K2
           L2
           M2
           N2
           O2
           P2
           Q2
           R2
           S2
           T2
           U2
           V2
           W2
           X2
           Y2
           Z2
           A3
           B3
           C3
           D3
           E3
           F3
           G3
           H3)
        (let ((a!1 (or (and O2 (not (= C3 H3)))
               (and P2 (not (= D3 H3)))
               (and Q2 (not (= E3 H3))))))
  (and (<= 3.0 F3) a!1 (ite (= G3 3.0) Q2 (ite (= G3 2.0) P2 O2))))
      )
      false
    )
  )
)

(check-sat)
(exit)
